c1_10_3

VEHICLE
NUMBER   CAPACITY
250     200

CUSTOMER
CUST NO. XCOORD.  YCOORD.  DEMAND  READY TIME DUE DATE  SERVICE TIME

0   250    250     0     0    1824     0
12 270 49 30 925 970 90
697 290 46 20 832 896 90
197 233 47 20 0 1531 90
632 267 44 20 649 693 90
369 287 43 10 555 609 90
589 235 50 30 813 896 90
198 237 43 20 631 702 90
212 278 46 20 0 1529 90
859 279 42 40 0 1524 90
648 230 49 20 201 253 90
63 275 45 20 444 515 90
366 269 46 20 0 1530 90
421 285 44 10 0 1526 90
949 232 47 10 262 327 90
929 268 52 10 1003 1079 90
261 288 44 20 0 1525 90
38 273 55 20 196 246 90
64 238 46 40 735 784 90
633 277 50 10 0 1533 90
767 231 43 10 447 513 90
192 269 48 20 0 1532 90
814 288 53 40 0 1534 90
838 292 41 10 0 1521 90
262 274 48 10 0 1531 90
618 275 42 30 537 608 90
214 232 42 10 545 599 90
324 283 47 10 0 1529 90
